##############################################
# VARIABLES
variable       seed equal 1
variable       input index init.dat
variable       output index run
variable       xlow equal -50
variable       xhigh equal 50
variable       ylow equal 10
variable       yhigh equal 100
variable       zlow equal -50
variable       zhigh equal 25

# Initialization
units          lj
boundary       f f f
atom_style     full
log            log.${output}
pair_style     lj/cut 3.0
read_data      ${input}
neighbor       0.3  bin
neigh_modify   every 1 delay 0 check yes
reset_timestep 0

#Output
thermo         1000
thermo_style   custom cpuremain step temp evdwl ebond pe
dump           20 all custom 5000 ${output}_traj id type x y z

# Minimisation with excluded volume

# Potential information
bond_style     hybrid harmonic fene
bond_coeff     1 fene 30.0 1.5 1.0 1.0
bond_coeff     2 harmonic 300.0 1.13
pair_modify    shift yes mix arithmetic
special_bonds  lj 1.0 1.0 1.0 coul 1.0 1.0 1.0

##################################################
#short run:switch on all potentials
##################################################
pair_coeff     *  *  1.0  1.0  1.122462048
pair_coeff     1  1  0.3  1.0  1.8
pair_coeff     2  2  1.0  1.0  1.8

fix wall all wall/lj126 &
zhi EDGE 1.0 1.0 1.122462048 &
zlo EDGE 1.0 1.0 1.122462048 &
xhi EDGE 1.0 1.0 1.122462048 &
xlo EDGE 1.0 1.0 1.122462048 &
yhi EDGE 1.0 1.0 1.122462048 &
ylo EDGE 1.0 1.0 1.122462048 units box

fix            1 all nve
fix            2 all langevin 1.00 1.00 1.0 ${seed}

reset_timestep 0
timestep       0.01
run            10000
unfix          2

write_data     mid_config.dat
##################################################
###Turn on reactions
#################################################

fix wall all wall/lj126 &
zhi EDGE 1.0 1.0 1.122462048 &
zlo EDGE 1.0 1.0 1.122462048 &
xhi EDGE 1.0 1.0 1.122462048 &
xlo EDGE 1.0 1.0 1.122462048 &
yhi EDGE 1.0 1.0 1.122462048 &
ylo EDGE 1.0 1.0 1.122462048 units box

fix            1 all nve
fix            2 all langevin 1.00 1.00 1.0 ${seed}

#Recoloring
fix            3 all kawasaki 10 10 ${seed} 1.0
fix            4 all atom/flip 1000 1 ${seed} 1 2 0.2

reset_timestep 0
timestep       0.01
run            200000
unfix          2

write_data     final_config.dat
###################################################

